RAW/CMTY/fspd-long/CMT9Y.vrp_seed-4.out
1160.682024	63.603	373.941
