RAW/CMTY/fspd-long/CMT9Y.vrp_seed-4.sol
Route #1: 37 137 44 107 65 93 42 92 147 17 63
Route #2: 145 142 87 150 19 64 88 40 94 141 148
Route #3: 12 144 109 149 4 146 56 47 139
Route #4: 108 52 15 45 91 72 33 124 123 71 90 103
Route #5: 38 62 9 34 74 75 105 30 104 49 76
Route #6: 77 32 51 22 101 3 59 20 131 83 2 100
Route #7: 60 26 113 114 99 43 86 97
Route #8: 81 8 140 82 31 28 70 80 120 1 119
Route #9: 122 125 106 73 117 89 39 54 10 5
Route #10: 68 132 98 24 96 95 25 58 14 133 110
Route #11: 11 126 16 127 53 129 29 79 21 118 130 50 78
Route #12: 27 138 48 112 61 7 69 23 57 6 102 46
Route #13: 116 121 115 36 85 35 84 128
Route #14: 143 135 111 66 41 136 13 67 134 55 18
Cost 1160.682024